50
18946

413 267
716 505
461 366
294 994
404 518
318 729
530 859
254 628
820 668
628 89
525 59
280 399
883 471
794 544
460 584
78 489
266 484
410 503
333 18
591 52
93 394
110 554
704 692
673 578
570 664
860 361
6 288
336 778
941 395
550 242
961 648
352 455
2 620
205 75
902 78
110 98
712 230
165 54
993 660
246 21
267 995
218 338
304 198
914 482
486 884
356 146
219 974
426 297
398 324
620 828
